(declare-const x String)
(declare-const y String)
(declare-const m String)
(declare-const n String)
(assert (str.in.re x (re.+ (re.range "0" "9"))))
(assert (= 1 (str.to.int x)))
(assert (not (= x "I1")))
(assert (not (= x "Z")))
(assert (not (= x "3k")))
(assert (not (= x "1'\x0c'")))
(assert (not (= x "G")))
(assert (not (= x "3r~")))
(assert (not (= x "4T=")))
(assert (not (= x "9")))
(assert (not (= x "7yp")))
(check-sat)
(get-model)
